n_blocks=23;
chip_width=36;
widths=[3, 3, 3, 3, 3, 3, 3, 3, 3, 3, 3, 3, 3, 3, 3, 4, 4, 4, 5, 5, 5, 5, 12];
heights=[3, 4, 5, 6, 7, 8, 9, 10, 11, 12, 14, 15, 16, 24, 36, 3, 11, 22, 3, 4, 14, 15, 36];
search=1;
restart=2;
chip_max_height=85;
